9
0 3262 1512 2086 2412 3678 3821 8213 5328 
1622 0 4426 8630 8423 4291 9328 6238 6328 
5263 3521 0 9542, 2416 9133 3128 3219 5210
2821 3521 2152 0, 7243 3912 3251 2419 6219 
3632 6321 3012 2314 0 5322 3928 9542 2140 
7221 3521 2152 9542 6727 0 9231 5294 2137 
1262 6328 1923 7421 6323 3219 0 3912 9214
7523 2147 7234 3742 4281 4215 6878 0 4218
6313 7321 3273 8243 6900 2155 8008 1320 0
19938
0 2 4 3 6 5 8 7 1 0